120
150
75
83
97
80
67
53
40
86
94
56
32
75
29
75
45
53
31
63
91
64
30
59
38
56
48
40
34
54
63
35
85
88
86
25
40
97
22
98
80
86
27
80
80
85
91
88
94
93
88
89
53
31
56
59
96
80
100
91
43
54
89
37
91
75
80
91
20
62
32
98
59
64
64
52
91
58
58
30
91
86
97
98
100
27
52
64
53
65
98
48
31
69
75
100
95
65
52
21
70
55
85
65
48
69
70
100
29
21
70
34
37
23
100
25
67
48
83
80
62
70
